\ Model crop_optimization_25plots
\ LP format - for model browsing. Use MPS format to capture full model detail.
\ Signature: 0xbd0a2302e949dd93
Maximize
  0.0178 Y_Patch1_Wheat + 0.015 Y_Patch1_Corn + 0.0148 Y_Patch1_Rice
   + 0.0218 Y_Patch1_Soybeans + 0.0148 Y_Patch1_Potatoes
   + 0.0176 Y_Patch1_Apples + 0.0178 Y_Patch2_Wheat + 0.015 Y_Patch2_Corn
   + 0.0148 Y_Patch2_Rice + 0.0218 Y_Patch2_Soybeans
   + 0.0148 Y_Patch2_Potatoes + 0.0176 Y_Patch2_Apples
   + 0.0178 Y_Patch3_Wheat + 0.015 Y_Patch3_Corn + 0.0148 Y_Patch3_Rice
   + 0.0218 Y_Patch3_Soybeans + 0.0148 Y_Patch3_Potatoes
   + 0.0176 Y_Patch3_Apples + 0.0178 Y_Patch4_Wheat + 0.015 Y_Patch4_Corn
   + 0.0148 Y_Patch4_Rice + 0.0218 Y_Patch4_Soybeans
   + 0.0148 Y_Patch4_Potatoes + 0.0176 Y_Patch4_Apples
   + 0.0178 Y_Patch5_Wheat + 0.015 Y_Patch5_Corn + 0.0148 Y_Patch5_Rice
   + 0.0218 Y_Patch5_Soybeans + 0.0148 Y_Patch5_Potatoes
   + 0.0176 Y_Patch5_Apples + 0.0178 Y_Patch6_Wheat + 0.015 Y_Patch6_Corn
   + 0.0148 Y_Patch6_Rice + 0.0218 Y_Patch6_Soybeans
   + 0.0148 Y_Patch6_Potatoes + 0.0176 Y_Patch6_Apples
   + 0.0178 Y_Patch7_Wheat + 0.015 Y_Patch7_Corn + 0.0148 Y_Patch7_Rice
   + 0.0218 Y_Patch7_Soybeans + 0.0148 Y_Patch7_Potatoes
   + 0.0176 Y_Patch7_Apples + 0.0178 Y_Patch8_Wheat + 0.015 Y_Patch8_Corn
   + 0.0148 Y_Patch8_Rice + 0.0218 Y_Patch8_Soybeans
   + 0.0148 Y_Patch8_Potatoes + 0.0176 Y_Patch8_Apples
   + 0.0178 Y_Patch9_Wheat + 0.015 Y_Patch9_Corn + 0.0148 Y_Patch9_Rice
   + 0.0218 Y_Patch9_Soybeans + 0.0148 Y_Patch9_Potatoes
   + 0.0176 Y_Patch9_Apples + 0.0178 Y_Patch10_Wheat + 0.015 Y_Patch10_Corn
   + 0.0148 Y_Patch10_Rice + 0.0218 Y_Patch10_Soybeans
   + 0.0148 Y_Patch10_Potatoes + 0.0176 Y_Patch10_Apples
   + 0.0178 Y_Patch11_Wheat + 0.015 Y_Patch11_Corn + 0.0148 Y_Patch11_Rice
   + 0.0218 Y_Patch11_Soybeans + 0.0148 Y_Patch11_Potatoes
   + 0.0176 Y_Patch11_Apples + 0.0178 Y_Patch12_Wheat
   + 0.015 Y_Patch12_Corn + 0.0148 Y_Patch12_Rice
   + 0.0218 Y_Patch12_Soybeans + 0.0148 Y_Patch12_Potatoes
   + 0.0176 Y_Patch12_Apples + 0.0178 Y_Patch13_Wheat
   + 0.015 Y_Patch13_Corn + 0.0148 Y_Patch13_Rice
   + 0.0218 Y_Patch13_Soybeans + 0.0148 Y_Patch13_Potatoes
   + 0.0176 Y_Patch13_Apples + 0.0178 Y_Patch14_Wheat
   + 0.015 Y_Patch14_Corn + 0.0148 Y_Patch14_Rice
   + 0.0218 Y_Patch14_Soybeans + 0.0148 Y_Patch14_Potatoes
   + 0.0176 Y_Patch14_Apples + 0.0178 Y_Patch15_Wheat
   + 0.015 Y_Patch15_Corn + 0.0148 Y_Patch15_Rice
   + 0.0218 Y_Patch15_Soybeans + 0.0148 Y_Patch15_Potatoes
   + 0.0176 Y_Patch15_Apples + 0.0178 Y_Patch16_Wheat
   + 0.015 Y_Patch16_Corn + 0.0148 Y_Patch16_Rice
   + 0.0218 Y_Patch16_Soybeans + 0.0148 Y_Patch16_Potatoes
   + 0.0176 Y_Patch16_Apples + 0.0178 Y_Patch17_Wheat
   + 0.015 Y_Patch17_Corn + 0.0148 Y_Patch17_Rice
   + 0.0218 Y_Patch17_Soybeans + 0.0148 Y_Patch17_Potatoes
   + 0.0176 Y_Patch17_Apples + 0.0178 Y_Patch18_Wheat
   + 0.015 Y_Patch18_Corn + 0.0148 Y_Patch18_Rice
   + 0.0218 Y_Patch18_Soybeans + 0.0148 Y_Patch18_Potatoes
   + 0.0176 Y_Patch18_Apples + 0.0178 Y_Patch19_Wheat
   + 0.015 Y_Patch19_Corn + 0.0148 Y_Patch19_Rice
   + 0.0218 Y_Patch19_Soybeans + 0.0148 Y_Patch19_Potatoes
   + 0.0176 Y_Patch19_Apples + 0.0178 Y_Patch20_Wheat
   + 0.015 Y_Patch20_Corn + 0.0148 Y_Patch20_Rice
   + 0.0218 Y_Patch20_Soybeans + 0.0148 Y_Patch20_Potatoes
   + 0.0176 Y_Patch20_Apples + 0.0178 Y_Patch21_Wheat
   + 0.015 Y_Patch21_Corn + 0.0148 Y_Patch21_Rice
   + 0.0218 Y_Patch21_Soybeans + 0.0148 Y_Patch21_Potatoes
   + 0.0176 Y_Patch21_Apples + 0.0178 Y_Patch22_Wheat
   + 0.015 Y_Patch22_Corn + 0.0148 Y_Patch22_Rice
   + 0.0218 Y_Patch22_Soybeans + 0.0148 Y_Patch22_Potatoes
   + 0.0176 Y_Patch22_Apples + 0.0178 Y_Patch23_Wheat
   + 0.015 Y_Patch23_Corn + 0.0148 Y_Patch23_Rice
   + 0.0218 Y_Patch23_Soybeans + 0.0148 Y_Patch23_Potatoes
   + 0.0176 Y_Patch23_Apples + 0.0178 Y_Patch24_Wheat
   + 0.015 Y_Patch24_Corn + 0.0148 Y_Patch24_Rice
   + 0.0218 Y_Patch24_Soybeans + 0.0148 Y_Patch24_Potatoes
   + 0.0176 Y_Patch24_Apples + 0.0178 Y_Patch25_Wheat
   + 0.015 Y_Patch25_Corn + 0.0148 Y_Patch25_Rice
   + 0.0218 Y_Patch25_Soybeans + 0.0148 Y_Patch25_Potatoes
   + 0.0176 Y_Patch25_Apples
Subject To
 Max_Assignment_Patch1: Y_Patch1_Wheat + Y_Patch1_Corn + Y_Patch1_Rice
   + Y_Patch1_Soybeans + Y_Patch1_Potatoes + Y_Patch1_Apples <= 1
 Max_Assignment_Patch2: Y_Patch2_Wheat + Y_Patch2_Corn + Y_Patch2_Rice
   + Y_Patch2_Soybeans + Y_Patch2_Potatoes + Y_Patch2_Apples <= 1
 Max_Assignment_Patch3: Y_Patch3_Wheat + Y_Patch3_Corn + Y_Patch3_Rice
   + Y_Patch3_Soybeans + Y_Patch3_Potatoes + Y_Patch3_Apples <= 1
 Max_Assignment_Patch4: Y_Patch4_Wheat + Y_Patch4_Corn + Y_Patch4_Rice
   + Y_Patch4_Soybeans + Y_Patch4_Potatoes + Y_Patch4_Apples <= 1
 Max_Assignment_Patch5: Y_Patch5_Wheat + Y_Patch5_Corn + Y_Patch5_Rice
   + Y_Patch5_Soybeans + Y_Patch5_Potatoes + Y_Patch5_Apples <= 1
 Max_Assignment_Patch6: Y_Patch6_Wheat + Y_Patch6_Corn + Y_Patch6_Rice
   + Y_Patch6_Soybeans + Y_Patch6_Potatoes + Y_Patch6_Apples <= 1
 Max_Assignment_Patch7: Y_Patch7_Wheat + Y_Patch7_Corn + Y_Patch7_Rice
   + Y_Patch7_Soybeans + Y_Patch7_Potatoes + Y_Patch7_Apples <= 1
 Max_Assignment_Patch8: Y_Patch8_Wheat + Y_Patch8_Corn + Y_Patch8_Rice
   + Y_Patch8_Soybeans + Y_Patch8_Potatoes + Y_Patch8_Apples <= 1
 Max_Assignment_Patch9: Y_Patch9_Wheat + Y_Patch9_Corn + Y_Patch9_Rice
   + Y_Patch9_Soybeans + Y_Patch9_Potatoes + Y_Patch9_Apples <= 1
 Max_Assignment_Patch10: Y_Patch10_Wheat + Y_Patch10_Corn + Y_Patch10_Rice
   + Y_Patch10_Soybeans + Y_Patch10_Potatoes + Y_Patch10_Apples <= 1
 Max_Assignment_Patch11: Y_Patch11_Wheat + Y_Patch11_Corn + Y_Patch11_Rice
   + Y_Patch11_Soybeans + Y_Patch11_Potatoes + Y_Patch11_Apples <= 1
 Max_Assignment_Patch12: Y_Patch12_Wheat + Y_Patch12_Corn + Y_Patch12_Rice
   + Y_Patch12_Soybeans + Y_Patch12_Potatoes + Y_Patch12_Apples <= 1
 Max_Assignment_Patch13: Y_Patch13_Wheat + Y_Patch13_Corn + Y_Patch13_Rice
   + Y_Patch13_Soybeans + Y_Patch13_Potatoes + Y_Patch13_Apples <= 1
 Max_Assignment_Patch14: Y_Patch14_Wheat + Y_Patch14_Corn + Y_Patch14_Rice
   + Y_Patch14_Soybeans + Y_Patch14_Potatoes + Y_Patch14_Apples <= 1
 Max_Assignment_Patch15: Y_Patch15_Wheat + Y_Patch15_Corn + Y_Patch15_Rice
   + Y_Patch15_Soybeans + Y_Patch15_Potatoes + Y_Patch15_Apples <= 1
 Max_Assignment_Patch16: Y_Patch16_Wheat + Y_Patch16_Corn + Y_Patch16_Rice
   + Y_Patch16_Soybeans + Y_Patch16_Potatoes + Y_Patch16_Apples <= 1
 Max_Assignment_Patch17: Y_Patch17_Wheat + Y_Patch17_Corn + Y_Patch17_Rice
   + Y_Patch17_Soybeans + Y_Patch17_Potatoes + Y_Patch17_Apples <= 1
 Max_Assignment_Patch18: Y_Patch18_Wheat + Y_Patch18_Corn + Y_Patch18_Rice
   + Y_Patch18_Soybeans + Y_Patch18_Potatoes + Y_Patch18_Apples <= 1
 Max_Assignment_Patch19: Y_Patch19_Wheat + Y_Patch19_Corn + Y_Patch19_Rice
   + Y_Patch19_Soybeans + Y_Patch19_Potatoes + Y_Patch19_Apples <= 1
 Max_Assignment_Patch20: Y_Patch20_Wheat + Y_Patch20_Corn + Y_Patch20_Rice
   + Y_Patch20_Soybeans + Y_Patch20_Potatoes + Y_Patch20_Apples <= 1
 Max_Assignment_Patch21: Y_Patch21_Wheat + Y_Patch21_Corn + Y_Patch21_Rice
   + Y_Patch21_Soybeans + Y_Patch21_Potatoes + Y_Patch21_Apples <= 1
 Max_Assignment_Patch22: Y_Patch22_Wheat + Y_Patch22_Corn + Y_Patch22_Rice
   + Y_Patch22_Soybeans + Y_Patch22_Potatoes + Y_Patch22_Apples <= 1
 Max_Assignment_Patch23: Y_Patch23_Wheat + Y_Patch23_Corn + Y_Patch23_Rice
   + Y_Patch23_Soybeans + Y_Patch23_Potatoes + Y_Patch23_Apples <= 1
 Max_Assignment_Patch24: Y_Patch24_Wheat + Y_Patch24_Corn + Y_Patch24_Rice
   + Y_Patch24_Soybeans + Y_Patch24_Potatoes + Y_Patch24_Apples <= 1
 Max_Assignment_Patch25: Y_Patch25_Wheat + Y_Patch25_Corn + Y_Patch25_Rice
   + Y_Patch25_Soybeans + Y_Patch25_Potatoes + Y_Patch25_Apples <= 1
 U_Link_Patch1_Wheat: Y_Patch1_Wheat - U_Wheat <= 0
 U_Link_Patch2_Wheat: Y_Patch2_Wheat - U_Wheat <= 0
 U_Link_Patch3_Wheat: Y_Patch3_Wheat - U_Wheat <= 0
 U_Link_Patch4_Wheat: Y_Patch4_Wheat - U_Wheat <= 0
 U_Link_Patch5_Wheat: Y_Patch5_Wheat - U_Wheat <= 0
 U_Link_Patch6_Wheat: Y_Patch6_Wheat - U_Wheat <= 0
 U_Link_Patch7_Wheat: Y_Patch7_Wheat - U_Wheat <= 0
 U_Link_Patch8_Wheat: Y_Patch8_Wheat - U_Wheat <= 0
 U_Link_Patch9_Wheat: Y_Patch9_Wheat - U_Wheat <= 0
 U_Link_Patch10_Wheat: Y_Patch10_Wheat - U_Wheat <= 0
 U_Link_Patch11_Wheat: Y_Patch11_Wheat - U_Wheat <= 0
 U_Link_Patch12_Wheat: Y_Patch12_Wheat - U_Wheat <= 0
 U_Link_Patch13_Wheat: Y_Patch13_Wheat - U_Wheat <= 0
 U_Link_Patch14_Wheat: Y_Patch14_Wheat - U_Wheat <= 0
 U_Link_Patch15_Wheat: Y_Patch15_Wheat - U_Wheat <= 0
 U_Link_Patch16_Wheat: Y_Patch16_Wheat - U_Wheat <= 0
 U_Link_Patch17_Wheat: Y_Patch17_Wheat - U_Wheat <= 0
 U_Link_Patch18_Wheat: Y_Patch18_Wheat - U_Wheat <= 0
 U_Link_Patch19_Wheat: Y_Patch19_Wheat - U_Wheat <= 0
 U_Link_Patch20_Wheat: Y_Patch20_Wheat - U_Wheat <= 0
 U_Link_Patch21_Wheat: Y_Patch21_Wheat - U_Wheat <= 0
 U_Link_Patch22_Wheat: Y_Patch22_Wheat - U_Wheat <= 0
 U_Link_Patch23_Wheat: Y_Patch23_Wheat - U_Wheat <= 0
 U_Link_Patch24_Wheat: Y_Patch24_Wheat - U_Wheat <= 0
 U_Link_Patch25_Wheat: Y_Patch25_Wheat - U_Wheat <= 0
 U_Bound_Wheat: - Y_Patch1_Wheat - Y_Patch2_Wheat - Y_Patch3_Wheat
   - Y_Patch4_Wheat - Y_Patch5_Wheat - Y_Patch6_Wheat - Y_Patch7_Wheat
   - Y_Patch8_Wheat - Y_Patch9_Wheat - Y_Patch10_Wheat - Y_Patch11_Wheat
   - Y_Patch12_Wheat - Y_Patch13_Wheat - Y_Patch14_Wheat - Y_Patch15_Wheat
   - Y_Patch16_Wheat - Y_Patch17_Wheat - Y_Patch18_Wheat - Y_Patch19_Wheat
   - Y_Patch20_Wheat - Y_Patch21_Wheat - Y_Patch22_Wheat - Y_Patch23_Wheat
   - Y_Patch24_Wheat - Y_Patch25_Wheat + U_Wheat <= 0
 U_Link_Patch1_Corn: Y_Patch1_Corn - U_Corn <= 0
 U_Link_Patch2_Corn: Y_Patch2_Corn - U_Corn <= 0
 U_Link_Patch3_Corn: Y_Patch3_Corn - U_Corn <= 0
 U_Link_Patch4_Corn: Y_Patch4_Corn - U_Corn <= 0
 U_Link_Patch5_Corn: Y_Patch5_Corn - U_Corn <= 0
 U_Link_Patch6_Corn: Y_Patch6_Corn - U_Corn <= 0
 U_Link_Patch7_Corn: Y_Patch7_Corn - U_Corn <= 0
 U_Link_Patch8_Corn: Y_Patch8_Corn - U_Corn <= 0
 U_Link_Patch9_Corn: Y_Patch9_Corn - U_Corn <= 0
 U_Link_Patch10_Corn: Y_Patch10_Corn - U_Corn <= 0
 U_Link_Patch11_Corn: Y_Patch11_Corn - U_Corn <= 0
 U_Link_Patch12_Corn: Y_Patch12_Corn - U_Corn <= 0
 U_Link_Patch13_Corn: Y_Patch13_Corn - U_Corn <= 0
 U_Link_Patch14_Corn: Y_Patch14_Corn - U_Corn <= 0
 U_Link_Patch15_Corn: Y_Patch15_Corn - U_Corn <= 0
 U_Link_Patch16_Corn: Y_Patch16_Corn - U_Corn <= 0
 U_Link_Patch17_Corn: Y_Patch17_Corn - U_Corn <= 0
 U_Link_Patch18_Corn: Y_Patch18_Corn - U_Corn <= 0
 U_Link_Patch19_Corn: Y_Patch19_Corn - U_Corn <= 0
 U_Link_Patch20_Corn: Y_Patch20_Corn - U_Corn <= 0
 U_Link_Patch21_Corn: Y_Patch21_Corn - U_Corn <= 0
 U_Link_Patch22_Corn: Y_Patch22_Corn - U_Corn <= 0
 U_Link_Patch23_Corn: Y_Patch23_Corn - U_Corn <= 0
 U_Link_Patch24_Corn: Y_Patch24_Corn - U_Corn <= 0
 U_Link_Patch25_Corn: Y_Patch25_Corn - U_Corn <= 0
 U_Bound_Corn: - Y_Patch1_Corn - Y_Patch2_Corn - Y_Patch3_Corn
   - Y_Patch4_Corn - Y_Patch5_Corn - Y_Patch6_Corn - Y_Patch7_Corn
   - Y_Patch8_Corn - Y_Patch9_Corn - Y_Patch10_Corn - Y_Patch11_Corn
   - Y_Patch12_Corn - Y_Patch13_Corn - Y_Patch14_Corn - Y_Patch15_Corn
   - Y_Patch16_Corn - Y_Patch17_Corn - Y_Patch18_Corn - Y_Patch19_Corn
   - Y_Patch20_Corn - Y_Patch21_Corn - Y_Patch22_Corn - Y_Patch23_Corn
   - Y_Patch24_Corn - Y_Patch25_Corn + U_Corn <= 0
 U_Link_Patch1_Rice: Y_Patch1_Rice - U_Rice <= 0
 U_Link_Patch2_Rice: Y_Patch2_Rice - U_Rice <= 0
 U_Link_Patch3_Rice: Y_Patch3_Rice - U_Rice <= 0
 U_Link_Patch4_Rice: Y_Patch4_Rice - U_Rice <= 0
 U_Link_Patch5_Rice: Y_Patch5_Rice - U_Rice <= 0
 U_Link_Patch6_Rice: Y_Patch6_Rice - U_Rice <= 0
 U_Link_Patch7_Rice: Y_Patch7_Rice - U_Rice <= 0
 U_Link_Patch8_Rice: Y_Patch8_Rice - U_Rice <= 0
 U_Link_Patch9_Rice: Y_Patch9_Rice - U_Rice <= 0
 U_Link_Patch10_Rice: Y_Patch10_Rice - U_Rice <= 0
 U_Link_Patch11_Rice: Y_Patch11_Rice - U_Rice <= 0
 U_Link_Patch12_Rice: Y_Patch12_Rice - U_Rice <= 0
 U_Link_Patch13_Rice: Y_Patch13_Rice - U_Rice <= 0
 U_Link_Patch14_Rice: Y_Patch14_Rice - U_Rice <= 0
 U_Link_Patch15_Rice: Y_Patch15_Rice - U_Rice <= 0
 U_Link_Patch16_Rice: Y_Patch16_Rice - U_Rice <= 0
 U_Link_Patch17_Rice: Y_Patch17_Rice - U_Rice <= 0
 U_Link_Patch18_Rice: Y_Patch18_Rice - U_Rice <= 0
 U_Link_Patch19_Rice: Y_Patch19_Rice - U_Rice <= 0
 U_Link_Patch20_Rice: Y_Patch20_Rice - U_Rice <= 0
 U_Link_Patch21_Rice: Y_Patch21_Rice - U_Rice <= 0
 U_Link_Patch22_Rice: Y_Patch22_Rice - U_Rice <= 0
 U_Link_Patch23_Rice: Y_Patch23_Rice - U_Rice <= 0
 U_Link_Patch24_Rice: Y_Patch24_Rice - U_Rice <= 0
 U_Link_Patch25_Rice: Y_Patch25_Rice - U_Rice <= 0
 U_Bound_Rice: - Y_Patch1_Rice - Y_Patch2_Rice - Y_Patch3_Rice
   - Y_Patch4_Rice - Y_Patch5_Rice - Y_Patch6_Rice - Y_Patch7_Rice
   - Y_Patch8_Rice - Y_Patch9_Rice - Y_Patch10_Rice - Y_Patch11_Rice
   - Y_Patch12_Rice - Y_Patch13_Rice - Y_Patch14_Rice - Y_Patch15_Rice
   - Y_Patch16_Rice - Y_Patch17_Rice - Y_Patch18_Rice - Y_Patch19_Rice
   - Y_Patch20_Rice - Y_Patch21_Rice - Y_Patch22_Rice - Y_Patch23_Rice
   - Y_Patch24_Rice - Y_Patch25_Rice + U_Rice <= 0
 U_Link_Patch1_Soybeans: Y_Patch1_Soybeans - U_Soybeans <= 0
 U_Link_Patch2_Soybeans: Y_Patch2_Soybeans - U_Soybeans <= 0
 U_Link_Patch3_Soybeans: Y_Patch3_Soybeans - U_Soybeans <= 0
 U_Link_Patch4_Soybeans: Y_Patch4_Soybeans - U_Soybeans <= 0
 U_Link_Patch5_Soybeans: Y_Patch5_Soybeans - U_Soybeans <= 0
 U_Link_Patch6_Soybeans: Y_Patch6_Soybeans - U_Soybeans <= 0
 U_Link_Patch7_Soybeans: Y_Patch7_Soybeans - U_Soybeans <= 0
 U_Link_Patch8_Soybeans: Y_Patch8_Soybeans - U_Soybeans <= 0
 U_Link_Patch9_Soybeans: Y_Patch9_Soybeans - U_Soybeans <= 0
 U_Link_Patch10_Soybeans: Y_Patch10_Soybeans - U_Soybeans <= 0
 U_Link_Patch11_Soybeans: Y_Patch11_Soybeans - U_Soybeans <= 0
 U_Link_Patch12_Soybeans: Y_Patch12_Soybeans - U_Soybeans <= 0
 U_Link_Patch13_Soybeans: Y_Patch13_Soybeans - U_Soybeans <= 0
 U_Link_Patch14_Soybeans: Y_Patch14_Soybeans - U_Soybeans <= 0
 U_Link_Patch15_Soybeans: Y_Patch15_Soybeans - U_Soybeans <= 0
 U_Link_Patch16_Soybeans: Y_Patch16_Soybeans - U_Soybeans <= 0
 U_Link_Patch17_Soybeans: Y_Patch17_Soybeans - U_Soybeans <= 0
 U_Link_Patch18_Soybeans: Y_Patch18_Soybeans - U_Soybeans <= 0
 U_Link_Patch19_Soybeans: Y_Patch19_Soybeans - U_Soybeans <= 0
 U_Link_Patch20_Soybeans: Y_Patch20_Soybeans - U_Soybeans <= 0
 U_Link_Patch21_Soybeans: Y_Patch21_Soybeans - U_Soybeans <= 0
 U_Link_Patch22_Soybeans: Y_Patch22_Soybeans - U_Soybeans <= 0
 U_Link_Patch23_Soybeans: Y_Patch23_Soybeans - U_Soybeans <= 0
 U_Link_Patch24_Soybeans: Y_Patch24_Soybeans - U_Soybeans <= 0
 U_Link_Patch25_Soybeans: Y_Patch25_Soybeans - U_Soybeans <= 0
 U_Bound_Soybeans: - Y_Patch1_Soybeans - Y_Patch2_Soybeans
   - Y_Patch3_Soybeans - Y_Patch4_Soybeans - Y_Patch5_Soybeans
   - Y_Patch6_Soybeans - Y_Patch7_Soybeans - Y_Patch8_Soybeans
   - Y_Patch9_Soybeans - Y_Patch10_Soybeans - Y_Patch11_Soybeans
   - Y_Patch12_Soybeans - Y_Patch13_Soybeans - Y_Patch14_Soybeans
   - Y_Patch15_Soybeans - Y_Patch16_Soybeans - Y_Patch17_Soybeans
   - Y_Patch18_Soybeans - Y_Patch19_Soybeans - Y_Patch20_Soybeans
   - Y_Patch21_Soybeans - Y_Patch22_Soybeans - Y_Patch23_Soybeans
   - Y_Patch24_Soybeans - Y_Patch25_Soybeans + U_Soybeans <= 0
 U_Link_Patch1_Potatoes: Y_Patch1_Potatoes - U_Potatoes <= 0
 U_Link_Patch2_Potatoes: Y_Patch2_Potatoes - U_Potatoes <= 0
 U_Link_Patch3_Potatoes: Y_Patch3_Potatoes - U_Potatoes <= 0
 U_Link_Patch4_Potatoes: Y_Patch4_Potatoes - U_Potatoes <= 0
 U_Link_Patch5_Potatoes: Y_Patch5_Potatoes - U_Potatoes <= 0
 U_Link_Patch6_Potatoes: Y_Patch6_Potatoes - U_Potatoes <= 0
 U_Link_Patch7_Potatoes: Y_Patch7_Potatoes - U_Potatoes <= 0
 U_Link_Patch8_Potatoes: Y_Patch8_Potatoes - U_Potatoes <= 0
 U_Link_Patch9_Potatoes: Y_Patch9_Potatoes - U_Potatoes <= 0
 U_Link_Patch10_Potatoes: Y_Patch10_Potatoes - U_Potatoes <= 0
 U_Link_Patch11_Potatoes: Y_Patch11_Potatoes - U_Potatoes <= 0
 U_Link_Patch12_Potatoes: Y_Patch12_Potatoes - U_Potatoes <= 0
 U_Link_Patch13_Potatoes: Y_Patch13_Potatoes - U_Potatoes <= 0
 U_Link_Patch14_Potatoes: Y_Patch14_Potatoes - U_Potatoes <= 0
 U_Link_Patch15_Potatoes: Y_Patch15_Potatoes - U_Potatoes <= 0
 U_Link_Patch16_Potatoes: Y_Patch16_Potatoes - U_Potatoes <= 0
 U_Link_Patch17_Potatoes: Y_Patch17_Potatoes - U_Potatoes <= 0
 U_Link_Patch18_Potatoes: Y_Patch18_Potatoes - U_Potatoes <= 0
 U_Link_Patch19_Potatoes: Y_Patch19_Potatoes - U_Potatoes <= 0
 U_Link_Patch20_Potatoes: Y_Patch20_Potatoes - U_Potatoes <= 0
 U_Link_Patch21_Potatoes: Y_Patch21_Potatoes - U_Potatoes <= 0
 U_Link_Patch22_Potatoes: Y_Patch22_Potatoes - U_Potatoes <= 0
 U_Link_Patch23_Potatoes: Y_Patch23_Potatoes - U_Potatoes <= 0
 U_Link_Patch24_Potatoes: Y_Patch24_Potatoes - U_Potatoes <= 0
 U_Link_Patch25_Potatoes: Y_Patch25_Potatoes - U_Potatoes <= 0
 U_Bound_Potatoes: - Y_Patch1_Potatoes - Y_Patch2_Potatoes
   - Y_Patch3_Potatoes - Y_Patch4_Potatoes - Y_Patch5_Potatoes
   - Y_Patch6_Potatoes - Y_Patch7_Potatoes - Y_Patch8_Potatoes
   - Y_Patch9_Potatoes - Y_Patch10_Potatoes - Y_Patch11_Potatoes
   - Y_Patch12_Potatoes - Y_Patch13_Potatoes - Y_Patch14_Potatoes
   - Y_Patch15_Potatoes - Y_Patch16_Potatoes - Y_Patch17_Potatoes
   - Y_Patch18_Potatoes - Y_Patch19_Potatoes - Y_Patch20_Potatoes
   - Y_Patch21_Potatoes - Y_Patch22_Potatoes - Y_Patch23_Potatoes
   - Y_Patch24_Potatoes - Y_Patch25_Potatoes + U_Potatoes <= 0
 U_Link_Patch1_Apples: Y_Patch1_Apples - U_Apples <= 0
 U_Link_Patch2_Apples: Y_Patch2_Apples - U_Apples <= 0
 U_Link_Patch3_Apples: Y_Patch3_Apples - U_Apples <= 0
 U_Link_Patch4_Apples: Y_Patch4_Apples - U_Apples <= 0
 U_Link_Patch5_Apples: Y_Patch5_Apples - U_Apples <= 0
 U_Link_Patch6_Apples: Y_Patch6_Apples - U_Apples <= 0
 U_Link_Patch7_Apples: Y_Patch7_Apples - U_Apples <= 0
 U_Link_Patch8_Apples: Y_Patch8_Apples - U_Apples <= 0
 U_Link_Patch9_Apples: Y_Patch9_Apples - U_Apples <= 0
 U_Link_Patch10_Apples: Y_Patch10_Apples - U_Apples <= 0
 U_Link_Patch11_Apples: Y_Patch11_Apples - U_Apples <= 0
 U_Link_Patch12_Apples: Y_Patch12_Apples - U_Apples <= 0
 U_Link_Patch13_Apples: Y_Patch13_Apples - U_Apples <= 0
 U_Link_Patch14_Apples: Y_Patch14_Apples - U_Apples <= 0
 U_Link_Patch15_Apples: Y_Patch15_Apples - U_Apples <= 0
 U_Link_Patch16_Apples: Y_Patch16_Apples - U_Apples <= 0
 U_Link_Patch17_Apples: Y_Patch17_Apples - U_Apples <= 0
 U_Link_Patch18_Apples: Y_Patch18_Apples - U_Apples <= 0
 U_Link_Patch19_Apples: Y_Patch19_Apples - U_Apples <= 0
 U_Link_Patch20_Apples: Y_Patch20_Apples - U_Apples <= 0
 U_Link_Patch21_Apples: Y_Patch21_Apples - U_Apples <= 0
 U_Link_Patch22_Apples: Y_Patch22_Apples - U_Apples <= 0
 U_Link_Patch23_Apples: Y_Patch23_Apples - U_Apples <= 0
 U_Link_Patch24_Apples: Y_Patch24_Apples - U_Apples <= 0
 U_Link_Patch25_Apples: Y_Patch25_Apples - U_Apples <= 0
 U_Bound_Apples: - Y_Patch1_Apples - Y_Patch2_Apples - Y_Patch3_Apples
   - Y_Patch4_Apples - Y_Patch5_Apples - Y_Patch6_Apples - Y_Patch7_Apples
   - Y_Patch8_Apples - Y_Patch9_Apples - Y_Patch10_Apples
   - Y_Patch11_Apples - Y_Patch12_Apples - Y_Patch13_Apples
   - Y_Patch14_Apples - Y_Patch15_Apples - Y_Patch16_Apples
   - Y_Patch17_Apples - Y_Patch18_Apples - Y_Patch19_Apples
   - Y_Patch20_Apples - Y_Patch21_Apples - Y_Patch22_Apples
   - Y_Patch23_Apples - Y_Patch24_Apples - Y_Patch25_Apples + U_Apples
   <= 0
 MinFoodGroup_Grains: U_Wheat + U_Corn + U_Rice >= 1
 MinFoodGroup_Legumes: U_Soybeans >= 1
 MinFoodGroup_Vegetables: U_Potatoes >= 1
 MinFoodGroup_Fruits: U_Apples >= 1
Bounds
Binaries
 Y_Patch1_Wheat Y_Patch1_Corn Y_Patch1_Rice Y_Patch1_Soybeans
 Y_Patch1_Potatoes Y_Patch1_Apples Y_Patch2_Wheat Y_Patch2_Corn
 Y_Patch2_Rice Y_Patch2_Soybeans Y_Patch2_Potatoes Y_Patch2_Apples
 Y_Patch3_Wheat Y_Patch3_Corn Y_Patch3_Rice Y_Patch3_Soybeans
 Y_Patch3_Potatoes Y_Patch3_Apples Y_Patch4_Wheat Y_Patch4_Corn
 Y_Patch4_Rice Y_Patch4_Soybeans Y_Patch4_Potatoes Y_Patch4_Apples
 Y_Patch5_Wheat Y_Patch5_Corn Y_Patch5_Rice Y_Patch5_Soybeans
 Y_Patch5_Potatoes Y_Patch5_Apples Y_Patch6_Wheat Y_Patch6_Corn
 Y_Patch6_Rice Y_Patch6_Soybeans Y_Patch6_Potatoes Y_Patch6_Apples
 Y_Patch7_Wheat Y_Patch7_Corn Y_Patch7_Rice Y_Patch7_Soybeans
 Y_Patch7_Potatoes Y_Patch7_Apples Y_Patch8_Wheat Y_Patch8_Corn
 Y_Patch8_Rice Y_Patch8_Soybeans Y_Patch8_Potatoes Y_Patch8_Apples
 Y_Patch9_Wheat Y_Patch9_Corn Y_Patch9_Rice Y_Patch9_Soybeans
 Y_Patch9_Potatoes Y_Patch9_Apples Y_Patch10_Wheat Y_Patch10_Corn
 Y_Patch10_Rice Y_Patch10_Soybeans Y_Patch10_Potatoes Y_Patch10_Apples
 Y_Patch11_Wheat Y_Patch11_Corn Y_Patch11_Rice Y_Patch11_Soybeans
 Y_Patch11_Potatoes Y_Patch11_Apples Y_Patch12_Wheat Y_Patch12_Corn
 Y_Patch12_Rice Y_Patch12_Soybeans Y_Patch12_Potatoes Y_Patch12_Apples
 Y_Patch13_Wheat Y_Patch13_Corn Y_Patch13_Rice Y_Patch13_Soybeans
 Y_Patch13_Potatoes Y_Patch13_Apples Y_Patch14_Wheat Y_Patch14_Corn
 Y_Patch14_Rice Y_Patch14_Soybeans Y_Patch14_Potatoes Y_Patch14_Apples
 Y_Patch15_Wheat Y_Patch15_Corn Y_Patch15_Rice Y_Patch15_Soybeans
 Y_Patch15_Potatoes Y_Patch15_Apples Y_Patch16_Wheat Y_Patch16_Corn
 Y_Patch16_Rice Y_Patch16_Soybeans Y_Patch16_Potatoes Y_Patch16_Apples
 Y_Patch17_Wheat Y_Patch17_Corn Y_Patch17_Rice Y_Patch17_Soybeans
 Y_Patch17_Potatoes Y_Patch17_Apples Y_Patch18_Wheat Y_Patch18_Corn
 Y_Patch18_Rice Y_Patch18_Soybeans Y_Patch18_Potatoes Y_Patch18_Apples
 Y_Patch19_Wheat Y_Patch19_Corn Y_Patch19_Rice Y_Patch19_Soybeans
 Y_Patch19_Potatoes Y_Patch19_Apples Y_Patch20_Wheat Y_Patch20_Corn
 Y_Patch20_Rice Y_Patch20_Soybeans Y_Patch20_Potatoes Y_Patch20_Apples
 Y_Patch21_Wheat Y_Patch21_Corn Y_Patch21_Rice Y_Patch21_Soybeans
 Y_Patch21_Potatoes Y_Patch21_Apples Y_Patch22_Wheat Y_Patch22_Corn
 Y_Patch22_Rice Y_Patch22_Soybeans Y_Patch22_Potatoes Y_Patch22_Apples
 Y_Patch23_Wheat Y_Patch23_Corn Y_Patch23_Rice Y_Patch23_Soybeans
 Y_Patch23_Potatoes Y_Patch23_Apples Y_Patch24_Wheat Y_Patch24_Corn
 Y_Patch24_Rice Y_Patch24_Soybeans Y_Patch24_Potatoes Y_Patch24_Apples
 Y_Patch25_Wheat Y_Patch25_Corn Y_Patch25_Rice Y_Patch25_Soybeans
 Y_Patch25_Potatoes Y_Patch25_Apples U_Wheat U_Corn U_Rice U_Soybeans
 U_Potatoes U_Apples
End
